9999	62	68	27	55	64	65	1	44	51
89	9999	92	56	54	38	99	8	70	18
61	96	9999	61	16	20	53	54	47	96
36	75	43	9999	69	15	74	71	54	87
17	31	17	45	9999	19	65	75	29	55
34	1	68	34	34	9999	3	33	27	97
39	52	91	58	44	25	9999	54	53	81
44	16	89	68	69	75	40	9999	4	60
65	85	50	63	25	65	82	43	9999	18
5	48	71	94	57	42	83	6	5	9999
